\ LP format - for model browsing. Use MPS format to capture full model detail.
Minimize
  0 a__10 + b_g
Subject To
 R0: b_0 >= 0
 R1: s__0 + b_0 = 0
 R2: s__0 = 0
 R3: b_1 >= 0
 R4: v__0 + b_1 = 0
 R5: v__0 = 0
 R6: b_a >= 0
 R7: a__0 + b_a_3[0,0] = 1
 R8: a__0 = 1
 R9: a__1 + b_a_3[0,1] = 1
 R10: a__1 = 1
 R11: a__2 + b_a_3[0,2] = 1
 R12: a__2 = 1
 R13: a__3 + b_a_3[0,3] = 1
 R14: a__3 = 1
 R15: a__4 + b_a_3[0,4] = 1
 R16: a__4 = 1
 R17: a__5 + b_a_3[0,5] = 1
 R18: a__5 = 1
 R19: a__6 + b_a_3[0,6] = 1
 R20: a__6 = 1
 R21: a__7 + b_a_3[0,7] = 1
 R22: a__7 = 1
 R23: a__8 + b_a_3[0,8] = 1
 R24: a__8 = 1
 R25: a__9 + b_a_3[0,9] = 1
 R26: a__9 = 1
 R27: - s__0 + c + b_g_5[0,0] = 0
 R28: - s__0 - v__0 + c + b_g_5[0,1] = 0
 R29: - s__0 - 2 v__0 - a__0 + 5.257781169105684 p + c + b_g_5[0,2]
   = 4.162109573860305
 R30: - s__0 - 3 v__0 - 2 a__0 - a__1 + 11.75675610493863 p + c
   + b_g_5[0,3] = 9.306759936954325
 R31: - s__0 - 4 v__0 - 3 a__0 - 2 a__1 - a__2 + 19.67281574942521 p + c
   + b_g_5[0,4] = 15.57318803159695
 R32: - s__0 - 5 v__0 - 4 a__0 - 3 a__1 - 2 a__2 - a__3
   + 28.79805348745067 p + c + b_g_5[0,5] = 22.79681300411503
 R33: - s__0 - 6 v__0 - 5 a__0 - 4 a__1 - 3 a__2 - 2 a__3 - a__4
   + 38.99274875180163 p + c + b_g_5[0,6] = 30.86703072478917
 R34: - s__0 - 7 v__0 - 6 a__0 - 5 a__1 - 4 a__2 - 3 a__3 - 2 a__4 - a__5
   + 50.15603569681731 p + c + b_g_5[0,7] = 39.70399483098123
 R35: - s__0 - 8 v__0 - 7 a__0 - 6 a__1 - 5 a__2 - 4 a__3 - 3 a__4 - 2 a__5
   - a__6 + 62.210905757016 p + c + b_g_5[0,8] = 49.24674460992062
 R36: - s__0 - 9 v__0 - 8 a__0 - 7 a__1 - 6 a__2 - 5 a__3 - 4 a__4 - 3 a__5
   - 2 a__6 - a__7 + 75.09613582421719 p + c + b_g_5[0,9]
   = 59.4468152669527
 R37: - s__0 - 10 v__0 - 9 a__0 - 8 a__1 - 7 a__2 - 6 a__3 - 5 a__4
   - 4 a__5 - 3 a__6 - 2 a__7 - a__8 + 88.76156208814525 p + c
   + b_g_5[0,10] = 70.26449665281599
 R38: b_p >= 0
 R39: p + b_p = 0.96875
 R40: p = 0.96875
 R41: b_c >= 0
 R42: c + b_c = 27.5
 R43: c = 27.5
Bounds
 -100 <= s__0 <= 2000
 -5 <= v__0 <= 10
 -1 <= a__0 <= 2
 -1 <= a__1 <= 2
 -1 <= a__2 <= 2
 -1 <= a__3 <= 2
 -1 <= a__4 <= 2
 -1 <= a__5 <= 2
 -1 <= a__6 <= 2
 -1 <= a__7 <= 2
 -1 <= a__8 <= 2
 -1 <= a__9 <= 2
 -1 <= a__10 <= 2
 0.9375 <= p <= 0.96875
 25 <= c <= 27.5
 -10000 <= b_0 <= 10000
 -10000 <= b_1 <= 10000
 -10000 <= b_a <= 10000
 -10000 <= b_a_3[0,0] <= 10000
 -10000 <= b_a_3[0,1] <= 10000
 -10000 <= b_a_3[0,2] <= 10000
 -10000 <= b_a_3[0,3] <= 10000
 -10000 <= b_a_3[0,4] <= 10000
 -10000 <= b_a_3[0,5] <= 10000
 -10000 <= b_a_3[0,6] <= 10000
 -10000 <= b_a_3[0,7] <= 10000
 -10000 <= b_a_3[0,8] <= 10000
 -10000 <= b_a_3[0,9] <= 10000
 -10000 <= b_g <= 10000
 -10000 <= b_g_5[0,0] <= 10000
 -10000 <= b_g_5[0,1] <= 10000
 -10000 <= b_g_5[0,2] <= 10000
 -10000 <= b_g_5[0,3] <= 10000
 -10000 <= b_g_5[0,4] <= 10000
 -10000 <= b_g_5[0,5] <= 10000
 -10000 <= b_g_5[0,6] <= 10000
 -10000 <= b_g_5[0,7] <= 10000
 -10000 <= b_g_5[0,8] <= 10000
 -10000 <= b_g_5[0,9] <= 10000
 -10000 <= b_g_5[0,10] <= 10000
 -10000 <= b_p <= 10000
 -10000 <= b_c <= 10000
General Constraints
 GC0: b_a = MIN ( b_a_3[0,0] , b_a_3[0,1] , b_a_3[0,2] , b_a_3[0,3] ,
   b_a_3[0,4] , b_a_3[0,5] , b_a_3[0,6] , b_a_3[0,7] , b_a_3[0,8] ,
   b_a_3[0,9] )
 GC1: b_g = MAX ( b_g_5[0,0] , b_g_5[0,1] , b_g_5[0,2] , b_g_5[0,3] ,
   b_g_5[0,4] , b_g_5[0,5] , b_g_5[0,6] , b_g_5[0,7] , b_g_5[0,8] ,
   b_g_5[0,9] , b_g_5[0,10] )
End
